10
1 0 15
2 0 48
2 1 23
3 0 37
3 1 28
3 2 15
4 0 53
4 1 11
4 2 33
4 3 73
5 0 33
5 1 25
5 2 25
5 3 70
5 4 70
6 0 5
6 1 39
6 2 36
6 3 1
6 4 24
6 5 40
7 0 69
7 1 40
7 2 5
7 3 17
7 4 22
7 5 30
7 6 70
8 0 69
8 1 39
8 2 12
8 3 24
8 4 12
8 5 65
8 6 11
8 7 28
9 0 51
9 1 19
9 2 58
9 3 12
9 4 64
9 5 63
9 6 41
9 7 75
9 8 63
